-426 -451 0
49 -451 0
-450 -451 0
-451 0
-26 0
1 0
426 0
51 0
-401 0
-76 0
21 0
-326 0
-46 0
-346 0
-376 0
-101 0
16 0
18 0
23 0
446 0
3 0
-251 0
-41 0
-266 0
-341 0
-28 0
-271 0
-301 0
-176 0
-196 0
-281 0
-283 0
-296 0
-43 0
-268 0
-298 0
-343 0
-331 0
-146 0
-166 0
-373 0
-303 0
-356 0
-371 0
-48 0
-78 0
-273 0
-348 0
-378 0
-406 0
-71 0
-91 0
-29 0
-421 0
-121 0
-56 0
-58 0
-253 0
-328 0
-106 0
-391 0
-73 0
-358 0
11 0
13 0
441 0
12 0
14 0
17 0
19 0
428 0
4 0
5 0
8 0
2 0
6 0
9 0
10 0
15 0
443 0
7 0
20 0
448 0
429 0
-36 0
0
